20J6M/DAT/20J6MNLL-6.dat
20 6
23.7006 23.7006
24.9271 24.9271
25.13 25.13
28.9254 28.9254
34.9875 34.9875
24.3828 24.3828
30.4379 30.4379
30.9445 30.9445
14.4695 14.4695
25.9037 25.9037
23.9397 23.9397
26.9985 26.9985
19.9399 19.9399
19.235 19.235
22.9311 22.9311
31.349 31.349
25.8055 25.8055
22.8693 22.8693
24.57 24.57
32.0747 32.0747
85.587