20J6M/SOL/20J6MNLL-6.sol
solution status: optimal solution found
objective value:                             85.58695
x#1#5                                               1 	(obj:0)
x#2#4                                               1 	(obj:0)
x#3#4                                               1 	(obj:0)
x#4#1                                               1 	(obj:0)
x#5#2                               0.366538049303322 	(obj:0)
x#5#6                               0.633461950696678 	(obj:0)
x#6#5                                               1 	(obj:0)
x#7#1                                               1 	(obj:0)
x#8#1                               0.329137649663107 	(obj:0)
x#8#2                               0.670862350336893 	(obj:0)
x#9#5                                               1 	(obj:0)
x#10#2                                              1 	(obj:0)
x#11#2                             0.0165812437081496 	(obj:0)
x#11#3                               0.98341875629185 	(obj:0)
x#12#1                              0.594057077245032 	(obj:0)
x#12#4                              0.405942922754968 	(obj:0)
x#13#3                                              1 	(obj:0)
x#14#3                                              1 	(obj:0)
x#15#5                                              1 	(obj:0)
x#16#6                                              1 	(obj:0)
x#17#2                              0.996010540388676 	(obj:0)
x#17#5                            0.00398945961132369 	(obj:0)
x#18#3                                              1 	(obj:0)
x#19#4                                              1 	(obj:0)
x#20#6                                              1 	(obj:0)
z                                            85.58695 	(obj:1)
